ObjectiveValue = 4372.3;
flow=[(1,6,2)(5,0,0)(5,1,1)(5,2,0)(5,4,0)(5,6,28)(5,7,0)(5,8,0)(5,9,0)(5,10,0)(5,11,0)(5,12,0)(5,13,0)(6,1,2)(6,5,3)(6,7,8)(6,10,3)(6,11,32)(8,9,1)(10,6,2)(11,6,12)(11,9,3)(11,10,4)(11,12,15)(12,5,5)(12,6,24)(12,7,1)(12,10,6)(12,13,1)];
